Running MiniSat on FULL_RUN_MINISAT\207b28c3cefc55b143259222cbfd4962-pcmax-scheduling-m37-28831-324346-SAT.sanitized.cnf... 
============================[ Problem Statistics ]=============================
|                                                                             |
|  Number of variables:         28830                                         |
|  Number of clauses:          320272                                         |
|  Parse time:                   0.49 s                                       |
|                                                                             |
============================[ Search Statistics ]==============================
| Conflicts |          ORIGINAL         |          LEARNT          | Progress |
|           |    Vars  Clauses Literals |    Limit  Clauses Lit/Cl |          |
===============================================================================
|       100 |   28403   313127   820311 |   114813      100      4 |  1.481 % |
|       250 |   28393   313127   820311 |   126294      249      4 |  1.516 % |
|       475 |   28387   313127   820311 |   138924      470      7 |  1.537 % |
|       812 |   28386   313127   820311 |   152816      806      7 |  1.540 % |
|      1318 |   28384   311322   816575 |   168098     1305      8 |  1.547 % |
|      2077 |   28383   311322   816575 |   184907     2063      9 |  1.550 % |
|      3216 |   28382   311322   816575 |   203398     3201     75 |  1.554 % |
|      4924 |   28382   310875   815637 |   223738     4906     56 |  1.554 % |
|      7486 |   28382   310875   815637 |   246112     7468     67 |  1.554 % |
|     11330 |   28377   310134   814082 |   270723    11307     90 |  1.571 % |
|     17096 |   28377   310134   814082 |   297795    17073    125 |  1.571 % |
|     25745 |   28376   310086   813976 |   327575    25719    142 |  1.575 % |
|     38719 |   28376   310086   813976 |   360333    38693    185 |  1.575 % |
ERROR: MiniSat process not found for FULL_RUN_MINISAT\22b4cf412c811872d6ba5078106aeb6c-j3037_10_rggt_b.cnf 
Finished MiniSat on FULL_RUN_MINISAT\22b4cf412c811872d6ba5078106aeb6c-j3037_10_rggt_b.cnf